Cars = 1..200;
Options = 1..5;
Classes = 1..30;
sequenceMinCapacity = [0, 0, 0, 0, 0];
sequenceMaxCapacity = [1, 2, 1, 2, 1];
sequenceSize = [2, 3, 3, 5, 5];
numOrdered = [31, 14, 1, 4, 1, 1, 2, 2, 5, 1, 20, 3, 1, 1, 5, 3, 3, 1, 5, 1, 11, 6, 14, 1, 17, 1, 7, 23, 5, 10];
classHasOption = [|false,  true, false, false, false
                  |false,  true,  true, false, false
                  |false,  true,  true,  true, false
                  | true, false,  true,  true, false
                  | true,  true,  true, false,  true
                  | true, false, false,  true,  true
                  | true, false,  true, false, false
                  | true,  true,  true,  true, false
                  |false, false, false, false,  true
                  |false, false,  true,  true,  true
                  | true,  true, false, false, false
                  |false, false,  true, false,  true
                  |false,  true,  true,  true,  true
                  | true,  true, false,  true,  true
                  | true,  true, false, false,  true
                  | true,  true,  true, false, false
                  |false,  true, false,  true,  true
                  | true,  true,  true,  true,  true
                  | true, false, false, false,  true
                  | true, false,  true, false, false
                  |false, false,  true, false, false
                  | true,  true, false,  true, false
                  |false, false, false,  true, false
                  |false, false, false, false, false
                  |false, false, false, false, false
                  |false, false, false, false, false
                  |false, false, false, false, false
                  | true, false, false, false, false
                  |false, false, false, false, false
                  |false, false, false, false, false|];
optionOrdering = [1, 3, 5, 2, 4];
